# ORCA Input File generated by Ophysia
! PBE0 D4 def2-TZVP OPT FREQ GOAT
! TightSCF
* xyz 1 1
C          1.00339        0.03022        0.19249
H          2.02400       -0.08189       -0.15057
H          0.49307        0.97739        0.07262
H          0.49303       -0.80486        0.65518
*