# ORCA Input File generated by Ophysia
! PBE0 D4 def2-TZVP OPT FREQ GOAT
! TightSCF
* xyz 1 1
C          1.08061        0.25678       -0.07673
C          2.54951        0.09032        0.05017
H          0.55437       -0.17657       -0.91913
H          0.55401        0.94691        0.57169
H          2.85405       -0.89353       -0.31847
H          2.85246        0.17412        1.09713
H          3.06853        0.85873       -0.52913
*