# ORCA Input File generated by Ophysia
! PBE0 D4 def2-TZVPP SP RIJCOSX def2/J TIGHTSCF
* xyz 0 1
H           0     0     0
*