# ORCA Input File generated by Ophysia
! B3LYP D4 def2-SVP OPT RIJCOSX FREQ def2/J TIGHTOPT
* xyz 0 1
C          1.05741       -0.07822       -0.04815
O          2.47314       -0.06815       -0.04453
H          0.69590       -0.86208        0.62193
H          0.69590       -0.25678       -1.06381
H          0.69433        0.89165        0.30010
H          2.76605       -0.94074       -0.35786
*