# ORCA Input File generated by Ophysia
! B3LYP D4 def2-SVP OPT RIJCOSX FREQ def2/J TIGHTOPT
* xyz 0 1
O          1.01160        0.10148        0.01245
H          1.97948        0.07915        0.05316
H          0.73275       -0.34466        0.82619
*