# ORCA Input File generated by Ophysia
! B3LYP D4 def2-SVP OPT RIJCOSX FREQ def2/J TIGHTOPT
* xyz 1 1
C          1.15423        0.29612        0.01043
H          2.17484       -0.05694       -0.06448
H          0.64391        0.66708       -0.86927
H          0.64387        0.27798        0.96496
*