# ORCA Input File generated by Ophysia
! PBE0 D4 def2-TZVP OPT FREQ GOAT
! TightSCF
* xyz 0 1
O          1.05915        0.05093        0.05394
H          2.02704        0.06775        0.01066
H          0.78030        0.38726       -0.81098
*